NAME : portcgen-16-8
COMMENT : portcgen N=16, seed=8
TYPE : TSP
DIMENSION : 16
EDGE_WEIGHT_TYPE : EUC_2D
NODE_COORD_SECTION
1 -237130 14408
2 162207 161345
3 9582 -394585
4 -56763 -80460
5 -439155 147535
6 -18655 37852
7 -53168 -41679
8 188805 -217475
9 166038 -292304
10 132464 96601
11 63253 33161
12 119230 -175926
13 -103000 1752
14 -87688 182336
15 -131524 491906
16 -218312 371621
